c This is a CNF SAT formula in the DIMACS CNF format,
c produced with the bc2cnf translator by Tommi Junttila;
c see http://users.ics.aalto.fi/tjunttil/circuits/index.html
c S7 <-> 1
c C6 <-> 2
c G26 <-> 4
c G16 <-> 6
c P26 <-> 8
c P16 <-> 9
c G14 <-> 10
c P14 <-> 12
c C2 <-> 13
c G12 <-> 15
c P12 <-> 17
c C0 <-> 18
c ALUFN0 <-> 20
c P07 <-> 21
c B7 <-> 22
c A7 <-> 23
c P06 <-> 24
c G06 <-> 25
c B6 <-> 26
c A6 <-> 27
c P05 <-> 28
c G05 <-> 29
c B5 <-> 30
c A5 <-> 31
c P04 <-> 32
c G04 <-> 33
c B4 <-> 34
c A4 <-> 35
c P03 <-> 36
c G03 <-> 37
c B3 <-> 38
c A3 <-> 39
c P02 <-> 40
c G02 <-> 41
c B2 <-> 42
c A2 <-> 43
c P01 <-> 44
c G01 <-> 45
c B1 <-> 46
c A1 <-> 47
c P00 <-> 48
c G00 <-> 49
c B0 <-> 50
c A0 <-> 51
p cnf 51 112
1 21 -2 0
1 -21 2 0
-1 21 2 0
-1 -21 -2 0
1 0
2 -3 0
2 -4 0
-2 4 3 0
-3 8 0
-3 13 0
3 -13 -8 0
4 -5 0
4 -6 0
-4 6 5 0
-5 9 0
-5 10 0
5 -10 -9 0
6 -7 0
6 -25 0
-6 25 7 0
-7 24 0
-7 29 0
7 -29 -24 0
-8 9 0
-8 12 0
8 -12 -9 0
-9 24 0
-9 28 0
9 -28 -24 0
10 -11 0
10 -33 0
-10 33 11 0
-11 32 0
-11 37 0
11 -37 -32 0
-12 32 0
-12 36 0
12 -36 -32 0
13 -14 0
13 -15 0
-13 15 14 0
-14 17 0
-14 18 0
14 -18 -17 0
15 -16 0
15 -41 0
-15 41 16 0
-16 40 0
-16 45 0
16 -45 -40 0
-17 40 0
-17 44 0
17 -44 -40 0
18 -19 0
18 -49 0
-18 49 19 0
-19 20 0
-19 48 0
19 -48 -20 0
21 23 -22 0
21 -23 22 0
-21 23 22 0
-21 -23 -22 0
24 27 -26 0
24 -27 26 0
-24 27 26 0
-24 -27 -26 0
-25 26 0
-25 27 0
25 -27 -26 0
28 31 -30 0
28 -31 30 0
-28 31 30 0
-28 -31 -30 0
-29 30 0
-29 31 0
29 -31 -30 0
32 35 -34 0
32 -35 34 0
-32 35 34 0
-32 -35 -34 0
-33 34 0
-33 35 0
33 -35 -34 0
36 39 -38 0
36 -39 38 0
-36 39 38 0
-36 -39 -38 0
-37 38 0
-37 39 0
37 -39 -38 0
40 43 -42 0
40 -43 42 0
-40 43 42 0
-40 -43 -42 0
-41 42 0
-41 43 0
41 -43 -42 0
44 47 -46 0
44 -47 46 0
-44 47 46 0
-44 -47 -46 0
-45 46 0
-45 47 0
45 -47 -46 0
48 51 -50 0
48 -51 50 0
-48 51 50 0
-48 -51 -50 0
-49 50 0
-49 51 0
49 -51 -50 0
